c turning on binary mode checking
c parsing input formula with 1151 variables and 2481 clauses
c finished parsing, read 17477665 bytes from proof file
c detected empty clause; start verification via backward checking
c 1440 of 2481 clauses in core                            
c 387887 of 476495 lemmas in core using 10047443 resolution steps
c 0 RAT lemmas in core; 163489 redundant literals in core lemmas
s VERIFIED
c verification time: 52.187 seconds
